(set-info :Origin "This instance was generated by: BanditFuzz-- an RL fuzzer for SMT solvers" )
(set-info :Author "Joe Scott, Fed Mora, Vijay Ganesh" )
(set-info :Contact "Joe Scott, joseph.scott@uwaterloo.ca")
; solvers/z3.sh
; 	time => 0.05666708946228027
; 	answer => err
; solvers/cvc4.sh
; 	time => 0.04809379577636719
; 	answer => sat
(set-logic QF_NIRA)
(declare-const bool_0 Bool)
(declare-const bool_1 Bool)
(declare-const bool_2 Bool)
(declare-const bool_3 Bool)
(declare-const bool_4 Bool)
(declare-const int_0 Int)
(declare-const int_1 Int)
(declare-const int_2 Int)
(declare-const int_3 Int)
(declare-const int_4 Int)
(declare-const real_0 Real)
(declare-const real_1 Real)
(declare-const real_2 Real)
(declare-const real_3 Real)
(declare-const real_4 Real)
(assert (=> (xor (< (- 272302780) 991235371) (>= (- 796281402) int_0)) (>= (- int_0 745746505) (- 968856211))))
(assert (or (< (- real_2) (- (- 781244605.8779356) (- 471732618.5847923))) (or (>= int_0 int_4) (>= int_0 (- 905237615)))))
(assert (>= (- (- int_3 int_2) (+ (- 259628837) 858231112)) (- (+ 779089768 int_4) (- int_2 int_2))))
(assert (<= (+ (/ real_3 (- 941790388.0796165)) (- 141577935.11237836 real_1)) (* (- real_3 569884611.5018842) (* real_0 real_1))))
(assert (or (> (+ 934874223.9170554 (- 678142909.0468261)) (* real_2 real_4)) (and (and true true) (=> true bool_3))))
(check-sat)
(exit)
